c This file is generated by v2cnfMtr
c Generated on Mon Nov  9 21:31:37 2015
p cnf 107 264
-1 -3 -13 0
1 13 0
3 13 0
-3 -4 -10 0
3 10 0
4 10 0
-2 -10 -12 0
2 12 0
10 12 0
-5 -10 -11 0
5 11 0
10 11 0
-16 -12 -8 0
16 8 0
12 8 0
-12 -11 -9 0
12 9 0
11 9 0
6 14 0
-6 -14 0
7 15 0
-7 -15 0
-1 -14 17 0
1 -17 0
14 -17 0
-1 -6 18 0
1 -18 0
6 -18 0
-1 -14 19 0
1 -19 0
14 -19 0
-13 -6 20 0
13 -20 0
6 -20 0
-17 -15 21 0
17 -21 0
15 -21 0
-18 -7 22 0
18 -22 0
7 -22 0
-19 -15 23 0
19 -23 0
15 -23 0
-20 -7 24 0
20 -24 0
7 -24 0
21 22 -25 0
-21 25 0
-22 25 0
23 25 -26 0
-23 26 0
-25 26 0
26 24 -16 0
-26 16 0
-24 16 0
c The second circuit:
-27 -29 -39 0
27 39 0
29 39 0
-29 -30 -36 0
29 36 0
30 36 0
-28 -36 -38 0
28 38 0
36 38 0
-31 -36 -37 0
31 37 0
36 37 0
-42 -38 -34 0
42 34 0
38 34 0
-38 -37 -35 0
38 35 0
37 35 0
32 40 0
-32 -40 0
33 41 0
-33 -41 0
-27 -40 43 0
27 -43 0
40 -43 0
-27 -32 44 0
27 -44 0
32 -44 0
-27 -40 45 0
27 -45 0
40 -45 0
-39 -32 46 0
39 -46 0
32 -46 0
-43 -41 47 0
43 -47 0
41 -47 0
-44 -33 48 0
44 -48 0
33 -48 0
-45 -41 49 0
45 -49 0
41 -49 0
-46 -33 50 0
46 -50 0
33 -50 0
47 48 -51 0
-47 51 0
-48 51 0
49 51 -52 0
-49 52 0
-51 52 0
52 50 -42 0
-52 42 0
-50 42 0
c Force PIs of 2 ckts to be the same:
1 -27 0
-1 27 0
2 -28 0
-2 28 0
3 -29 0
-3 29 0
4 -30 0
-4 30 0
5 -31 0
-5 31 0
c XOR outputs of 2 ckts:
-8 -34 -53 0
8 34 -53 0
8 -34 53 0
-8 34 53 0
-9 -35 -54 0
9 35 -54 0
9 -35 54 0
-9 35 54 0
c The last OR gate of the miter:
53 54 -55 0
-53 55 0
-54 55 0
55 0
c New ckt:
-56 -58 -68 0
56 68 0
58 68 0
-58 -59 -65 0
58 65 0
59 65 0
-57 -65 -67 0
57 67 0
65 67 0
-60 -65 -66 0
60 66 0
65 66 0
-71 -67 -63 0
71 63 0
67 63 0
-67 -66 -64 0
67 64 0
66 64 0
61 69 0
-61 -69 0
62 70 0
-62 -70 0
-56 -69 72 0
56 -72 0
69 -72 0
-56 -61 73 0
56 -73 0
61 -73 0
-56 -69 74 0
56 -74 0
69 -74 0
-68 -61 75 0
68 -75 0
61 -75 0
-72 -70 76 0
72 -76 0
70 -76 0
-73 -62 77 0
73 -77 0
62 -77 0
-74 -70 78 0
74 -78 0
70 -78 0
-75 -62 79 0
75 -79 0
62 -79 0
76 77 -80 0
-76 80 0
-77 80 0
78 80 -81 0
-78 81 0
-80 81 0
81 79 -71 0
-81 71 0
-79 71 0
6 -61 0
-6 61 0
7 -62 0
-7 62 0
-56 0
-57 0
58 0
-59 0
-60 0
-63 0
-64 0
c New ckt:
-82 -84 -94 0
82 94 0
84 94 0
-84 -85 -91 0
84 91 0
85 91 0
-83 -91 -93 0
83 93 0
91 93 0
-86 -91 -92 0
86 92 0
91 92 0
-97 -93 -89 0
97 89 0
93 89 0
-93 -92 -90 0
93 90 0
92 90 0
87 95 0
-87 -95 0
88 96 0
-88 -96 0
-82 -95 98 0
82 -98 0
95 -98 0
-82 -87 99 0
82 -99 0
87 -99 0
-82 -95 100 0
82 -100 0
95 -100 0
-94 -87 101 0
94 -101 0
87 -101 0
-98 -96 102 0
98 -102 0
96 -102 0
-99 -88 103 0
99 -103 0
88 -103 0
-100 -96 104 0
100 -104 0
96 -104 0
-101 -88 105 0
101 -105 0
88 -105 0
102 103 -106 0
-102 106 0
-103 106 0
104 106 -107 0
-104 107 0
-106 107 0
107 105 -97 0
-107 97 0
-105 97 0
32 -87 0
-32 87 0
33 -88 0
-33 88 0
-82 0
-83 0
84 0
-85 0
-86 0
-89 0
-90 0
